NAME : portcgen-30-10
COMMENT : portcgen N=30, seed=10
TYPE : TSP
DIMENSION : 30
EDGE_WEIGHT_TYPE : EUC_2D
NODE_COORD_SECTION
1 -173460 289513
2 190002 127692
3 77414 77904
4 231322 -84940
5 12244 -50784
6 -35490 -8222
7 188149 42279
8 71340 81471
9 -284080 12593
10 -190721 181904
11 49511 -212317
12 -52833 63683
13 -209040 -178566
14 -116918 187424
15 92935 -69271
16 -221141 -113515
17 257072 22956
18 24665 -297400
19 -110378 -128940
20 26577 578374
21 -72372 29201
22 -64127 -144673
23 -222010 14100
24 184884 -8174
25 112665 170406
26 -105768 -152864
27 43279 -12466
28 -119811 289043
29 -136261 -91438
30 142028 -199890
